\ENCODING=ISO-8859-1
\Problem name: IloCplex

Minimize
 obj: 38028.4225 x1 + 70744.885 x2 + 39604.36 x3 + 15818.21 x4 + 16511.6225 x5
      + 27942.4225 x6 + 49879.4725 x7 + 62676.085 x8 + 26933.8225 x9
      + 61982.6725 x10 + 10086 x11 + 22584.235 x12 + 133152.01 x13
      + 23151.5725 x14 + 81272.1475 x15 + 47421.01 x16 + 299.999999999999 x17
      + 299.999999999997 x18 + 300 x19 - 9.93818973476099e-13 x20 + 300 x21
      + 300.000000000001 x22 + 299.999999999997 x23 + 299.999999999999 x24
      + 300.000000000002 x25 + 299.999999999999 x26 + 299.999999999996 x27
      + 299.999999999998 x28 + 299.999999999998 x29 + 300.000000000002 x30
      + 300.000000000001 x31 + 300 x32
Subject To
 c1:  x1 + x2 + x3 + x4 + x5 + x6 + x7 + x8 + x9 + x10 + x11 + x12 + x13 + x14
      + x15 + x16  = 1
 c2:  15000 x17 + 15000 x18 + 15000 x19 + 15000 x20 + 15000 x21 + 15000 x22
      + 15000 x23 + 15000 x24 + 15000 x25 + 15000 x26 + 15000 x27 + 15000 x28
      + 15000 x29 + 15000 x30 + 15000 x31 >= 0
 c3:  15000 x17 + 15000 x18 + 15000 x19 + 15000 x20 + 15000 x21 + 15000 x22
      + 15000 x23 + 15000 x24 + 15000 x25 + 15000 x26 + 15000 x27 + 15000 x28
      + 15000 x29 + 15000 x31 + 15000 x32 >= 0
 c4:  15000 x17 + 15000 x18 + 15000 x19 + 15000 x20 + 15000 x21 + 15000 x22
      + 15000 x23 + 15000 x24 + 15000 x25 + 15000 x27 + 15000 x28 + 15000 x29
      + 15000 x30 + 15000 x31 + 15000 x32 >= 0
 c5:  15000 x17 + 15000 x18 + 15000 x20 + 15000 x21 + 15000 x22 + 15000 x23
      + 15000 x24 + 15000 x25 + 15000 x26 + 15000 x27 + 15000 x28 + 15000 x29
      + 15000 x30 + 15000 x31 + 15000 x32 >= 0
 c6:  15000 x17 + 15000 x18 + 15000 x19 + 15000 x20 + 15000 x22 + 15000 x23
      + 15000 x24 + 15000 x25 + 15000 x26 + 15000 x27 + 15000 x28 + 15000 x29
      + 15000 x30 + 15000 x31 + 15000 x32 >= 0
 c7:  15000 x17 + 15000 x18 + 15000 x19 + 15000 x20 + 15000 x21 + 15000 x22
      + 15000 x23 + 15000 x24 + 15000 x26 + 15000 x27 + 15000 x28 + 15000 x29
      + 15000 x30 + 15000 x31 + 15000 x32 >= 0
 c8:  15000 x17 + 15000 x18 + 15000 x19 + 15000 x20 + 15000 x21 + 15000 x22
      + 15000 x24 + 15000 x25 + 15000 x26 + 15000 x27 + 15000 x28 + 15000 x29
      + 15000 x30 + 15000 x31 + 15000 x32 >= 0
 c9:  15000 x18 + 15000 x19 + 15000 x20 + 15000 x21 + 15000 x22 + 15000 x23
      + 15000 x24 + 15000 x25 + 15000 x26 + 15000 x27 + 15000 x28 + 15000 x29
      + 15000 x30 + 15000 x31 + 15000 x32 >= 0
 c10: 15000 x17 + 15000 x18 + 15000 x19 + 15000 x20 + 15000 x21 + 15000 x23
      + 15000 x24 + 15000 x25 + 15000 x26 + 15000 x27 + 15000 x28 + 15000 x29
      + 15000 x30 + 15000 x31 + 15000 x32 >= 0
 c11: 15000 x17 + 15000 x18 + 15000 x19 + 15000 x20 + 15000 x21 + 15000 x22
      + 15000 x23 + 15000 x24 + 15000 x25 + 15000 x26 + 15000 x28 + 15000 x29
      + 15000 x30 + 15000 x31 + 15000 x32 >= 0
 c12: 15000 x17 + 15000 x18 + 15000 x19 + 15000 x21 + 15000 x22 + 15000 x23
      + 15000 x24 + 15000 x25 + 15000 x26 + 15000 x27 + 15000 x28 + 15000 x29
      + 15000 x30 + 15000 x31 + 15000 x32 >= 0
 c13: 15000 x17 + 15000 x19 + 15000 x20 + 15000 x21 + 15000 x22 + 15000 x23
      + 15000 x24 + 15000 x25 + 15000 x26 + 15000 x27 + 15000 x28 + 15000 x29
      + 15000 x30 + 15000 x31 + 15000 x32 >= 0
 c14: 15000 x17 + 15000 x18 + 15000 x19 + 15000 x20 + 15000 x21 + 15000 x22
      + 15000 x23 + 15000 x24 + 15000 x25 + 15000 x26 + 15000 x27 + 15000 x28
      + 15000 x30 + 15000 x31 + 15000 x32 >= 0
 c15: 15000 x17 + 15000 x18 + 15000 x19 + 15000 x20 + 15000 x21 + 15000 x22
      + 15000 x23 + 15000 x25 + 15000 x26 + 15000 x27 + 15000 x28 + 15000 x29
      + 15000 x30 + 15000 x31 + 15000 x32 >= 0
 c16: 15000 x17 + 15000 x18 + 15000 x19 + 15000 x20 + 15000 x21 + 15000 x22
      + 15000 x23 + 15000 x24 + 15000 x25 + 15000 x26 + 15000 x27 + 15000 x28
      + 15000 x29 + 15000 x30 + 15000 x32 >= 0
 c17: 15000 x17 + 15000 x18 + 15000 x19 + 15000 x20 + 15000 x21 + 15000 x22
      + 15000 x23 + 15000 x24 + 15000 x25 + 15000 x26 + 15000 x27 + 15000 x29
      + 15000 x30 + 15000 x31 + 15000 x32 >= 0
Bounds
 0 <= x1 <= 1
 0 <= x2 <= 1
 0 <= x3 <= 1
 0 <= x4 <= 1
 0 <= x5 <= 1
 0 <= x6 <= 1
 0 <= x7 <= 1
 0 <= x8 <= 1
 0 <= x9 <= 1
 0 <= x10 <= 1
 0 <= x11 <= 1
 0 <= x12 <= 1
 0 <= x13 <= 1
 0 <= x14 <= 1
 0 <= x15 <= 1
 0 <= x16 <= 1
 0 <= x17 <= 1
 0 <= x18 <= 1
 0 <= x19 <= 1
 0 <= x20 <= 1
 0 <= x21 <= 1
 0 <= x22 <= 1
 0 <= x23 <= 1
 0 <= x24 <= 1
 0 <= x25 <= 1
 0 <= x26 <= 1
 0 <= x27 <= 1
 0 <= x28 <= 1
 0 <= x29 <= 1
 0 <= x30 <= 1
 0 <= x31 <= 1
 0 <= x32 <= 1
Binaries
 x1  x2  x3  x4  x5  x6  x7  x8  x9  x10  x11  x12  x13  x14  x15  x16  x17 
 x18  x19  x20  x21  x22  x23  x24  x25  x26  x27  x28  x29  x30  x31  x32 
End
